51	3

10	10	10	

0	0	0	0	3	2	3	4	
7	3	5	2	2	5	10	
2	5	4	3	2	5	10	
1	5	2	2	4	5	6	7	10	
5	5	5	4	2	8	11	
3	2	4	4	2	9	13	
2	3	5	2	2	9	11	
8	4	1	4	1	14	
5	3	3	2	2	12	14	
1	4	1	4	2	11	13	
4	3	2	2	2	14	15	
5	1	5	4	1	18	
2	3	2	4	1	16	
2	1	4	4	1	17	
1	2	2	2	2	17	19	
2	5	5	4	1	18	
5	4	5	4	2	20	21	
3	3	2	3	1	20	
2	5	3	3	1	20	
1	2	4	6	1	22	
1	1	6	2	3	22	23	24	
7	3	5	2	2	25	30	
2	5	4	3	2	25	30	
1	5	2	2	4	25	26	27	30	
5	5	5	4	2	28	31	
3	2	4	4	2	29	33	
2	3	5	2	2	29	31	
8	4	1	4	1	34	
5	3	3	2	2	32	34	
1	4	1	4	2	31	33	
4	3	2	2	2	34	35	
5	1	5	4	1	38	
2	3	2	4	1	36	
2	1	4	4	1	37	
1	2	2	2	2	37	39	
2	5	5	4	1	38	
5	4	5	4	2	40	41	
3	3	2	3	1	40	
2	5	3	3	1	40	
1	2	4	6	1	42	
1	1	6	2	3	42	43	44	
7	3	5	2	2	45	50	
2	5	4	3	2	45	50	
1	5	2	2	4	45	46	47	50	
5	5	5	4	1	48	
3	2	4	4	1	49	
2	3	5	2	1	49	
8	4	1	4	1	51	
5	3	3	2	1	51	
1	4	1	4	1	51	
0	0	0	0	0	
